263 5
10 10 10 10 10 

0 0 0 0 0 0 5 2 14 26 38 50 
0 0 0 0 0 0 5 3 4 6 7 12 
9 1 0 0 0 0 2 11 5 
2 5 0 0 0 0 3 10 8 46 
2 5 0 0 0 0 2 10 9 
9 6 0 0 0 0 2 11 10 
1 6 0 0 0 0 1 8 
5 9 0 0 0 0 1 9 
2 5 0 0 0 0 1 13 
5 5 0 0 0 0 1 13 
1 3 0 0 0 0 1 13 
5 5 0 0 0 0 1 13 
0 0 0 0 0 0 1 62 
0 0 0 0 0 0 8 15 17 18 19 20 22 23 24 
2 0 0 1 0 0 1 16 
5 0 0 3 0 0 1 21 
5 0 0 4 0 0 1 21 
9 0 0 3 0 0 1 21 
6 0 0 5 0 0 1 21 
10 0 0 7 0 0 1 21 
2 0 0 7 0 0 1 25 
8 0 0 8 0 0 1 25 
2 0 0 6 0 0 2 25 177 
6 0 0 6 0 0 1 25 
0 0 0 0 0 0 1 62 
0 0 0 0 0 0 6 27 28 30 35 36 255 
10 0 0 0 0 2 2 34 29 
2 0 0 0 0 2 2 33 29 
4 0 0 0 0 9 2 32 31 
4 0 0 0 0 2 1 31 
5 0 0 0 0 7 1 37 
5 0 0 0 0 3 1 37 
7 0 0 0 0 10 1 37 
3 0 0 0 0 7 1 37 
6 0 0 0 0 4 1 37 
4 0 0 0 0 4 1 37 
0 0 0 0 0 0 1 62 
0 0 0 0 0 0 5 39 40 42 47 48 
7 0 0 0 1 0 4 46 44 43 41 
2 0 0 0 4 0 2 44 43 
5 0 0 0 6 0 1 45 
6 0 0 0 4 0 2 43 65 
2 0 0 0 6 0 1 49 
8 0 0 0 5 0 1 49 
3 0 0 0 10 0 1 49 
6 0 0 0 4 0 1 49 
4 0 0 0 3 0 1 49 
9 0 0 0 7 0 1 49 
0 0 0 0 0 0 1 62 
0 0 0 0 0 0 4 51 52 54 55 
3 0 0 0 1 0 4 60 58 56 53 
7 0 0 0 3 0 3 59 58 53 
10 0 0 0 9 0 1 57 
8 0 0 0 8 0 1 56 
5 0 0 0 4 0 1 56 
8 0 0 0 6 0 1 61 
8 0 0 0 4 0 1 61 
6 0 0 0 8 0 1 61 
8 0 0 0 4 0 2 61 260 
3 0 0 0 3 0 1 61 
0 0 0 0 0 0 1 62 
0 0 0 0 0 0 5 63 75 87 99 111 
0 0 0 0 0 0 3 64 65 69 
5 0 0 0 1 0 3 68 67 66 
8 0 0 0 10 0 2 68 66 
4 0 0 0 5 0 4 73 72 71 70 
10 0 0 0 4 0 4 73 72 71 70 
9 0 0 0 7 0 3 73 71 70 
6 0 0 0 2 0 3 72 71 70 
2 0 0 0 6 0 2 74 107 
6 0 0 0 6 0 1 74 
6 0 0 0 6 0 1 74 
2 0 0 0 3 0 1 74 
0 0 0 0 0 0 1 123 
0 0 0 0 0 0 5 76 77 78 80 81 
8 0 1 0 0 0 4 84 83 79 222 
5 0 7 0 0 0 3 84 83 82 
8 0 6 0 0 0 2 84 82 
4 0 4 0 0 0 1 82 
6 0 5 0 0 0 1 85 
2 0 4 0 0 0 1 83 
10 0 5 0 0 0 1 86 
4 0 4 0 0 0 1 86 
2 0 5 0 0 0 1 86 
2 0 9 0 0 0 1 86 
0 0 0 0 0 0 1 123 
0 0 0 0 0 0 4 88 89 91 97 
5 0 0 0 1 0 4 96 94 92 90 
6 0 0 0 5 0 4 96 95 94 93 
4 0 0 0 8 0 2 95 93 
4 0 0 0 5 0 2 94 93 
3 0 0 0 6 0 1 93 
5 0 0 0 4 0 1 98 
4 0 0 0 4 0 2 98 227 
6 0 0 0 3 0 1 98 
3 0 0 0 8 0 1 98 
7 0 0 0 6 0 1 98 
0 0 0 0 0 0 1 123 
0 0 0 0 0 0 2 100 101 
10 0 0 0 1 0 5 109 108 107 104 102 
9 0 0 0 8 0 4 108 107 103 102 
4 0 0 0 6 0 2 106 105 
4 0 0 0 4 0 2 106 215 
7 0 0 0 5 0 1 105 
4 0 0 0 3 0 1 110 
6 0 0 0 8 0 1 110 
2 0 0 0 5 0 1 110 
5 0 0 0 5 0 1 110 
3 0 0 0 5 0 1 110 
0 0 0 0 0 0 1 123 
0 0 0 0 0 0 3 112 113 114 
1 0 0 0 1 0 4 121 120 116 115 
7 0 0 0 5 0 5 121 120 118 117 116 
3 0 0 0 4 0 2 116 115 
6 0 0 0 7 0 2 118 117 
9 0 0 0 6 0 1 119 
10 0 0 0 3 0 1 122 
2 0 0 0 3 0 2 122 241 
8 0 0 0 7 0 1 122 
2 0 0 0 7 0 1 122 
6 0 0 0 7 0 1 122 
0 0 0 0 0 0 1 123 
0 0 0 0 0 0 4 124 136 158 180 
0 0 0 0 0 0 5 125 126 127 128 134 
1 0 0 0 0 1 4 133 132 131 130 
7 0 0 0 0 4 4 132 131 129 244 
9 0 0 0 0 6 3 132 131 130 
3 0 0 0 0 6 3 132 131 130 
7 0 0 0 0 7 1 130 
5 0 0 0 0 9 1 135 
5 0 0 0 0 7 1 135 
1 0 0 0 0 5 1 135 
9 0 0 0 0 2 1 135 
5 0 0 0 0 3 1 135 
0 0 0 0 0 0 3 202 214 226 
0 0 0 0 0 0 6 137 138 139 140 141 144 
3 2 0 0 1 0 4 156 143 142 241 
2 3 0 0 3 0 3 156 149 143 
5 5 0 0 5 0 2 145 142 
7 4 0 0 7 0 5 156 155 148 147 146 
7 5 0 0 4 0 5 156 155 150 149 146 
5 8 0 0 7 0 4 155 150 149 146 
9 4 0 0 3 0 4 155 150 147 146 
3 10 0 0 6 0 4 155 150 149 146 
7 5 0 0 6 0 3 156 153 150 
9 3 0 0 4 0 3 154 153 152 
10 5 0 0 5 0 2 153 151 
9 4 0 0 4 0 2 154 150 
2 10 0 0 10 0 1 151 
7 5 0 0 2 0 1 152 
6 5 0 0 5 0 1 152 
5 8 0 0 6 0 1 157 
6 5 0 0 5 0 1 157 
2 3 0 0 5 0 1 157 
4 3 0 0 7 0 1 157 
9 3 0 0 5 0 1 157 
0 0 0 0 0 0 1 238 
0 0 0 0 0 0 5 159 160 161 162 163 
4 0 0 1 0 1 4 178 165 164 218 
9 0 0 5 0 6 3 167 166 164 
10 0 0 5 0 6 6 178 177 171 170 169 168 
10 0 0 8 0 4 3 178 171 165 
5 0 0 6 0 4 5 178 177 172 171 168 
1 0 0 4 0 5 4 177 172 171 168 
7 0 0 5 0 6 4 177 172 169 168 
2 0 0 5 0 6 4 177 172 171 168 
6 0 0 4 0 6 3 178 175 172 
3 0 0 5 0 4 3 176 175 174 
3 0 0 9 0 5 2 175 173 
4 0 0 2 0 6 2 176 172 
5 0 0 8 0 5 1 173 
4 0 0 8 0 4 1 174 
6 0 0 4 0 6 1 174 
4 0 0 5 0 3 1 179 
2 0 0 5 0 5 1 179 
6 0 0 1 0 5 1 179 
7 0 0 3 0 8 1 179 
1 0 0 7 0 5 1 179 
0 0 0 0 0 0 1 238 
0 0 0 0 0 0 5 181 182 183 184 187 
8 0 0 0 1 1 3 192 186 185 
1 0 0 0 2 9 2 192 185 
6 0 0 0 6 6 7 200 195 192 190 189 188 252 
6 0 0 0 7 5 3 190 189 186 
2 0 0 0 5 4 5 200 195 190 189 188 
9 0 0 0 4 5 3 200 195 188 
1 0 0 0 6 7 6 200 199 195 193 192 190 
1 0 0 0 7 7 4 198 194 193 191 
3 0 0 0 5 3 4 198 194 193 191 
6 0 0 0 4 10 3 198 197 196 
1 0 0 0 5 3 2 199 196 
5 0 0 0 4 3 2 197 196 
8 0 0 0 5 3 1 197 
7 0 0 0 4 4 1 197 
7 0 0 0 1 6 1 196 
6 0 0 0 5 7 1 201 
5 0 0 0 9 3 1 201 
7 0 0 0 7 2 1 201 
2 0 0 0 8 6 1 201 
6 0 0 0 5 6 1 201 
0 0 0 0 0 0 1 238 
0 0 0 0 0 0 7 203 204 205 207 208 211 212 
10 0 0 1 0 0 1 206 
2 0 0 7 0 0 1 206 
3 0 0 3 0 0 1 206 
4 0 0 5 0 0 1 209 
3 0 0 3 0 0 2 210 218 
8 0 0 6 0 0 1 209 
1 0 0 3 0 0 1 213 
1 0 0 9 0 0 1 213 
6 0 0 4 0 0 1 213 
9 0 0 9 0 0 1 213 
0 0 0 0 0 0 1 238 
0 0 0 0 0 0 3 215 216 217 
6 0 0 0 1 0 4 221 220 219 218 
10 0 0 0 6 0 4 224 222 221 218 
6 0 0 0 7 0 3 220 219 218 
5 0 0 0 4 0 2 223 228 
1 0 0 0 8 0 1 224 
10 0 0 0 6 0 1 223 
8 0 0 0 3 0 1 223 
8 0 0 0 6 0 1 223 
5 0 0 0 3 0 1 225 
1 0 0 0 6 0 1 225 
0 0 0 0 0 0 1 238 
0 0 0 0 0 0 3 227 228 230 
8 0 0 1 0 0 4 236 235 232 229 
1 0 0 3 0 0 4 235 234 233 231 
10 0 0 8 0 0 2 234 233 
8 0 0 7 0 0 1 231 
10 0 0 8 0 0 1 232 
6 0 0 3 0 0 1 237 
5 0 0 8 0 0 1 237 
4 0 0 4 0 0 1 237 
4 0 0 4 0 0 2 237 243 
4 0 0 4 0 0 1 237 
0 0 0 0 0 0 1 238 
0 0 0 0 0 0 2 239 251 
0 0 0 0 0 0 5 240 241 242 244 249 
2 0 0 1 0 0 3 247 245 243 
5 0 0 8 0 0 4 248 247 245 257 
4 0 0 5 0 0 1 243 
3 0 0 7 0 0 1 246 
5 0 0 7 0 0 1 245 
6 0 0 4 0 0 1 250 
1 0 0 6 0 0 1 250 
9 0 0 3 0 0 1 250 
10 0 0 6 0 0 1 250 
10 0 0 3 0 0 1 250 
0 0 0 0 0 0 1 263 
0 0 0 0 0 0 5 252 253 255 260 261 
6 0 0 0 0 1 3 259 257 254 
2 0 0 0 0 5 3 258 257 256 
3 0 0 0 0 9 2 258 256 
2 0 0 0 0 5 2 257 256 
9 0 0 0 0 9 1 262 
7 0 0 0 0 5 1 262 
5 0 0 0 0 2 1 262 
10 0 0 0 0 5 1 262 
3 0 0 0 0 5 1 262 
9 0 0 0 0 4 1 262 
0 0 0 0 0 0 1 263 
0 0 0 0 0 0 0 
